15 40
25
3 11 5 2
3 13 8 0
2 9 0 19
2 7 0 33
3 9 12 31
3 7 12 24
2 11 6 18
2 13 4 21
4 11 8 29
4 13 8 16
5 3 7 13
2 11 6 29
2 2 6 16
3 11 12 13
3 2 5 0
4 5 0 28
4 6 2 34
2 12 2 16
2 1 2 33
5 3 2 13
5 13 0 0
4 12 11 0
4 1 11 12
2 5 4 16
2 6 0 13
